(declare-fun g () String)
(declare-fun h () String)
(declare-fun i () String)
(declare-fun j () String)
(declare-fun w () String)   
(assert (RegexIn w (RegexStar (Str2Reg "abcabc"))))
(assert (RegexIn w (RegexStar (Str2Reg "abcabcabc"))))
(assert (= w (Concat "abc" j)))
(assert (= g (Concat "def" w)))
(assert (= g (Concat h i)))
(check-sat)